SECTION Graph
Nodes 220
Edges 374
E 2 3 5
E 3 4 5
E 4 5 5
E 5 6 5
E 6 7 5
E 7 8 5
E 8 9 5
E 9 10 5
E 10 11 5
E 11 12 5
E 12 13 5
E 13 14 5
E 14 15 5
E 1 17 13
E 2 18 13
E 3 19 13
E 4 20 13
E 5 21 13
E 6 22 13
E 7 23 13
E 8 24 13
E 9 25 13
E 10 26 13
E 11 27 13
E 12 28 13
E 13 29 13
E 14 30 13
E 15 31 13
E 16 32 13
E 18 19 5
E 19 20 5
E 20 21 5
E 21 22 5
E 22 23 5
E 23 24 5
E 24 25 5
E 25 26 5
E 26 27 5
E 27 28 5
E 28 29 5
E 29 30 5
E 30 31 5
E 17 33 13
E 18 35 13
E 19 36 13
E 20 37 13
E 21 38 13
E 22 39 13
E 23 40 13
E 24 41 13
E 25 42 13
E 26 43 13
E 27 44 13
E 28 45 13
E 29 46 13
E 31 47 13
E 32 49 13
E 33 34 5
E 34 35 5
E 35 36 5
E 36 37 5
E 37 38 5
E 38 39 5
E 39 40 5
E 40 41 5
E 41 42 5
E 42 43 5
E 43 44 5
E 44 45 5
E 45 46 5
E 47 48 5
E 48 49 5
E 33 50 13
E 34 51 13
E 35 52 13
E 36 53 13
E 37 54 13
E 38 55 13
E 39 56 13
E 40 57 13
E 41 58 13
E 42 59 13
E 44 60 13
E 45 61 13
E 46 62 13
E 47 63 13
E 48 64 13
E 49 65 13
E 50 51 5
E 51 52 5
E 52 53 5
E 53 54 5
E 54 55 5
E 55 56 5
E 56 57 5
E 57 58 5
E 58 59 5
E 60 61 5
E 61 62 5
E 63 64 5
E 64 65 5
E 50 66 13
E 52 68 13
E 53 69 13
E 55 71 13
E 56 72 13
E 57 73 13
E 59 74 13
E 60 75 13
E 62 77 13
E 63 79 13
E 64 80 13
E 65 81 13
E 66 67 5
E 67 68 5
E 68 69 5
E 69 70 5
E 70 71 5
E 71 72 5
E 72 73 5
E 75 76 5
E 76 77 5
E 77 78 5
E 78 79 5
E 79 80 5
E 80 81 5
E 66 82 13
E 67 83 13
E 68 84 13
E 69 85 13
E 70 86 13
E 72 88 13
E 73 89 13
E 74 90 13
E 75 92 13
E 76 93 13
E 77 94 13
E 79 96 13
E 82 83 5
E 83 84 5
E 84 85 5
E 85 86 5
E 86 87 5
E 87 88 5
E 88 89 5
E 90 91 5
E 91 92 5
E 92 93 5
E 93 94 5
E 94 95 5
E 95 96 5
E 96 97 5
E 97 98 5
E 82 99 13
E 83 100 13
E 84 101 13
E 85 102 13
E 86 103 13
E 87 104 13
E 88 105 13
E 89 106 13
E 90 108 13
E 93 111 13
E 94 112 13
E 95 113 13
E 96 114 13
E 97 115 13
E 98 116 13
E 99 100 5
E 100 101 5
E 101 102 5
E 102 103 5
E 103 104 5
E 104 105 5
E 105 106 5
E 106 107 5
E 107 108 5
E 108 109 5
E 109 110 5
E 110 111 5
E 111 112 5
E 112 113 5
E 113 114 5
E 114 115 5
E 115 116 5
E 100 118 13
E 101 119 13
E 102 120 13
E 104 122 13
E 105 123 13
E 106 124 13
E 107 125 13
E 108 126 13
E 109 127 13
E 110 128 13
E 111 129 13
E 112 130 13
E 113 131 13
E 114 132 13
E 115 133 13
E 116 134 13
E 117 118 5
E 118 119 5
E 119 120 5
E 120 121 5
E 121 122 5
E 122 123 5
E 123 124 5
E 124 125 5
E 125 126 5
E 126 127 5
E 127 128 5
E 128 129 5
E 129 130 5
E 130 131 5
E 131 132 5
E 132 133 5
E 133 134 5
E 117 135 13
E 119 136 13
E 120 137 13
E 121 138 13
E 122 139 13
E 123 140 13
E 124 141 13
E 125 142 13
E 126 143 13
E 127 144 13
E 128 145 13
E 129 146 13
E 130 147 13
E 131 148 13
E 132 149 13
E 133 150 13
E 134 151 13
E 136 137 5
E 137 138 5
E 138 139 5
E 139 140 5
E 140 141 5
E 141 142 5
E 142 143 5
E 143 144 5
E 144 145 5
E 145 146 5
E 146 147 5
E 147 148 5
E 148 149 5
E 149 150 5
E 150 151 5
E 135 152 13
E 136 153 13
E 137 154 13
E 138 155 13
E 139 156 13
E 140 157 13
E 142 158 13
E 143 159 13
E 144 160 13
E 145 161 13
E 146 162 13
E 147 163 13
E 148 164 13
E 149 165 13
E 150 166 13
E 151 167 13
E 153 154 5
E 154 155 5
E 155 156 5
E 156 157 5
E 158 159 5
E 159 160 5
E 160 161 5
E 161 162 5
E 162 163 5
E 163 164 5
E 164 165 5
E 165 166 5
E 166 167 5
E 152 168 13
E 153 170 13
E 154 171 13
E 155 172 13
E 157 174 13
E 158 175 13
E 159 176 13
E 160 177 13
E 161 178 13
E 162 179 13
E 163 180 13
E 164 181 13
E 165 182 13
E 166 183 13
E 167 184 13
E 168 169 5
E 169 170 5
E 170 171 5
E 171 172 5
E 172 173 5
E 173 174 5
E 175 176 5
E 176 177 5
E 177 178 5
E 178 179 5
E 179 180 5
E 180 181 5
E 181 182 5
E 182 183 5
E 183 184 5
E 168 185 13
E 171 188 13
E 172 189 13
E 173 190 13
E 174 191 13
E 175 193 13
E 176 194 13
E 177 195 13
E 178 196 13
E 179 197 13
E 180 198 13
E 181 199 13
E 182 200 13
E 183 201 13
E 184 202 13
E 185 186 5
E 186 187 5
E 187 188 5
E 188 189 5
E 189 190 5
E 190 191 5
E 191 192 5
E 192 193 5
E 193 194 5
E 194 195 5
E 195 196 5
E 196 197 5
E 197 198 5
E 198 199 5
E 199 200 5
E 200 201 5
E 201 202 5
E 185 203 13
E 188 206 13
E 189 207 13
E 190 208 13
E 191 209 13
E 192 210 13
E 193 211 13
E 194 212 13
E 195 213 13
E 196 214 13
E 197 215 13
E 198 216 13
E 199 217 13
E 200 218 13
E 201 219 13
E 202 220 13
E 203 204 5
E 204 205 5
E 205 206 5
E 206 207 5
E 207 208 5
E 208 209 5
E 209 210 5
E 210 211 5
E 211 212 5
E 212 213 5
E 213 214 5
E 214 215 5
E 215 216 5
E 216 217 5
E 217 218 5
E 218 219 5
E 219 220 5
END

SECTION Terminals
Terminals 17
T 11
T 22
T 23
T 24
T 25
T 26
T 27
T 28
T 38
T 39
T 40
T 41
T 44
T 45
T 47
T 48
T 187
END

EOF
